sat
(
  (define-fun N () Int
    8)
  (define-fun cols ((x!0 Int)) Int
    (let ((a!1 (ite (and (<= (- 6) x!0)
                         (<= (- 4) x!0)
                         (<= (- 3) x!0)
                         (<= (- 2) x!0)
                         (<= 0 x!0)
                         (not (<= 1 x!0)))
                    4
                    465)))
    (let ((a!2 (ite (and (<= (- 6) x!0)
                         (<= (- 4) x!0)
                         (<= (- 3) x!0)
                         (<= (- 2) x!0)
                         (<= 0 x!0)
                         (<= 1 x!0)
                         (<= 2 x!0)
                         (<= 3 x!0)
                         (<= 4 x!0)
                         (<= 5 x!0)
                         (<= 6 x!0)
                         (not (<= 7 x!0)))
                    1
                    (ite (and (<= (- 6) x!0)
                              (<= (- 4) x!0)
                              (<= (- 3) x!0)
                              (<= (- 2) x!0)
                              (<= 0 x!0)
                              (<= 1 x!0)
                              (<= 2 x!0)
                              (<= 3 x!0)
                              (<= 4 x!0)
                              (<= 5 x!0)
                              (<= 6 x!0)
                              (<= 7 x!0))
                         3
                         a!1))))
    (let ((a!3 (ite (and (<= (- 6) x!0)
                         (<= (- 4) x!0)
                         (<= (- 3) x!0)
                         (<= (- 2) x!0)
                         (<= 0 x!0)
                         (<= 1 x!0)
                         (<= 2 x!0)
                         (<= 3 x!0)
                         (not (<= 4 x!0)))
                    5
                    a!2)))
    (let ((a!4 (ite (and (<= (- 6) x!0) (<= (- 4) x!0) (not (<= (- 3) x!0)))
                    16
                    (ite (<= (- 6) x!0) a!3 7))))
    (let ((a!5 (ite (and (<= (- 6) x!0)
                         (<= (- 4) x!0)
                         (<= (- 3) x!0)
                         (<= (- 2) x!0)
                         (<= 0 x!0)
                         (<= 1 x!0)
                         (<= 2 x!0)
                         (not (<= 3 x!0)))
                    7
                    a!4)))
    (let ((a!6 (ite (and (<= (- 6) x!0)
                         (<= (- 4) x!0)
                         (<= (- 3) x!0)
                         (<= (- 2) x!0)
                         (<= 0 x!0)
                         (<= 1 x!0)
                         (<= 2 x!0)
                         (<= 3 x!0)
                         (<= 4 x!0)
                         (<= 5 x!0)
                         (not (<= 6 x!0)))
                    6
                    a!5)))
    (let ((a!7 (ite (and (<= (- 6) x!0)
                         (<= (- 4) x!0)
                         (<= (- 3) x!0)
                         (<= (- 2) x!0)
                         (<= 0 x!0)
                         (<= 1 x!0)
                         (not (<= 2 x!0)))
                    0
                    a!6)))
    (let ((a!8 (ite (and (<= (- 6) x!0) (not (<= (- 4) x!0))) 19 a!7)))
    (let ((a!9 (ite (and (<= (- 6) x!0)
                         (<= (- 4) x!0)
                         (<= (- 3) x!0)
                         (<= (- 2) x!0)
                         (not (<= 0 x!0)))
                    (- 7072)
                    a!8)))
    (let ((a!10 (ite (and (<= (- 6) x!0)
                          (<= (- 4) x!0)
                          (<= (- 3) x!0)
                          (not (<= (- 2) x!0)))
                     15
                     a!9)))
      (ite (and (<= (- 6) x!0)
                (<= (- 4) x!0)
                (<= (- 3) x!0)
                (<= (- 2) x!0)
                (<= 0 x!0)
                (<= 1 x!0)
                (<= 2 x!0)
                (<= 3 x!0)
                (<= 4 x!0)
                (not (<= 5 x!0)))
           2
           a!10))))))))))))
)
